language ESSENCE' 1.0

letting jobs = 102
letting horizon = 781
letting resourcesRenew = 2
letting resourcesNonrenew = 2
letting resourceLimits = [16, 18, 368, 406]
letting successors = [[2, 3, 4, 5, 6, 7, 8, 9, 10, 11, 13, 14, 17, 18, 19, 21, 22, 23, 25, 35, 37], [41, 31, 26, 16, 12], [44, 43, 39, 31, 12], [51, 49, 46, 45, 40, 38, 27, 15], [59, 54, 53, 50, 49, 46, 45, 44, 36, 30, 29, 28], [62, 59, 54, 46, 45, 43, 42, 41, 38, 36, 34, 28], [62, 59, 50, 49, 45, 43, 41, 36, 28, 24], [50, 46, 45, 44, 43, 41, 36, 34, 29, 28], [57, 54, 49, 40, 34, 31, 29, 20], [57, 56, 46, 45, 44, 43, 41, 38, 33, 32, 28], [59, 54, 49, 45, 30, 29, 28, 27], [54, 53, 50, 49, 46, 45, 36, 29, 28], [54, 49, 46, 45, 36, 16], [64, 62, 59, 57, 52, 51, 49, 42, 40, 26], [69, 62, 59, 54, 53, 52, 48, 47, 44, 43, 39, 36], [64, 62, 59, 58, 57, 56, 53, 52, 50, 40, 30], [54, 52, 46, 44, 43, 42, 40, 34], [62, 50, 40, 38, 36, 30], [69, 60, 55, 51, 50, 47, 45, 43, 42, 34], [69, 64, 59, 58, 56, 53, 52, 50, 48, 47, 46, 43], [74, 56, 55, 54, 53, 40, 31], [69, 62, 52, 50, 48, 47, 45, 42, 36], [74, 56, 44, 42, 41, 40], [74, 69, 58, 57, 52, 48, 46, 44, 42], [69, 66, 60, 58, 55, 47, 43, 34], [101, 80, 69, 61, 58, 56, 50, 47, 46, 43], [101, 80, 75, 74, 70, 69, 67, 63, 60, 58, 57, 56, 55, 53, 50], [80, 74, 73, 68, 67, 66, 58, 55, 51, 40], [78, 76, 74, 65, 64, 62, 60, 58, 52, 48, 42], [74, 73, 69, 60, 55, 48, 47, 42], [80, 64, 60, 59, 51, 48, 42], [78, 76, 73, 70, 69, 65, 64, 62, 59, 58, 42], [78, 74, 73, 70, 65, 60, 47, 42], [101, 83, 80, 79, 78, 75, 64, 63, 56, 53, 48], [100, 83, 68, 65, 64, 63, 60, 55, 49, 48], [101, 99, 96, 83, 80, 78, 76, 75, 70, 66, 60, 58, 57, 56], [101, 78, 75, 69, 67, 66, 65, 64, 62, 60, 58, 48], [101, 78, 69, 68, 67, 66, 65, 52, 48], [80, 70, 60, 55, 42], [78, 75, 72, 69, 65, 60, 48, 47], [83, 80, 76, 64, 58, 55, 48], [101, 100, 99, 98, 94, 82, 79, 77, 75, 72, 71, 68, 67, 66], [99, 98, 97, 96, 82, 78, 76, 74, 71, 70, 67, 65], [99, 98, 97, 78, 75, 72, 70, 65, 64, 63], [101, 99, 97, 94, 75, 71, 67, 64, 58], [99, 98, 97, 75, 65, 60, 55], [100, 99, 97, 96, 93, 91, 90, 82, 79, 77, 71, 63], [98, 97, 96, 82, 77, 71, 70, 61], [101, 98, 97, 96, 95, 93, 91, 90, 89, 82, 78, 77, 75], [99, 98, 94, 92, 89, 82, 81, 77, 68, 66], [98, 96, 91, 90, 83, 82, 77, 65, 63], [97, 95, 90, 82, 80, 73, 72, 71, 70], [100, 98, 97, 92, 81, 77, 73, 65, 61], [100, 99, 98, 88, 78, 70, 64], [96, 91, 90, 89, 81, 78, 77, 72], [93, 92, 91, 87, 73, 71, 65], [100, 95, 91, 90, 89, 88, 87, 85, 84, 81], [98, 92, 90, 89, 86, 84, 82, 77], [101, 94, 93, 91, 87, 84, 81, 71], [94, 93, 90, 88, 85, 84, 82, 81], [99, 95, 94, 90, 89, 87, 86, 85, 84], [97, 95, 93, 92, 87, 84, 77], [95, 94, 92, 89, 85, 76], [96, 92, 91, 90, 85, 84, 82], [94, 89, 88, 86, 85, 84], [97, 93, 90, 87, 85, 84], [95, 93, 92, 90, 83], [96, 91, 88, 87, 85], [90, 89, 88, 87, 84], [93, 91, 81], [89, 86, 85], [88, 85, 84], [94, 85, 84], [90, 87, 86], [84, 81], [84, 81], [88, 85], [92, 84], [86, 84], [88, 84], [86], [87], [89], [102], [102], [102], [102], [102], [102], [102], [102], [102], [102], [102], [102], [102], [102], [102], [102], [102], [102], []]
letting durations = [[0], [1, 3, 5], [2, 8, 10], [1, 2, 5], [3, 3, 4], [2, 8, 8], [6, 8, 8], [2, 3, 7], [1, 10, 10], [8, 10, 10], [4, 5, 8], [1, 2, 5], [2, 5, 10], [2, 5, 10], [2, 10, 10], [9, 9, 10], [7, 7, 9], [2, 2, 10], [3, 4, 7], [2, 3, 10], [1, 4, 7], [1, 4, 5], [2, 4, 9], [3, 4, 10], [4, 5, 7], [3, 7, 8], [1, 9, 10], [6, 8, 8], [1, 3, 10], [2, 7, 8], [3, 8, 10], [1, 8, 10], [1, 4, 5], [1, 3, 9], [7, 8, 8], [3, 5, 8], [6, 8, 10], [2, 5, 7], [1, 3, 7], [2, 4, 8], [3, 7, 7], [3, 6, 8], [6, 8, 10], [4, 8, 10], [1, 6, 9], [4, 9, 10], [1, 6, 6], [5, 6, 7], [2, 3, 6], [3, 5, 9], [2, 4, 5], [5, 6, 8], [2, 2, 3], [1, 3, 5], [6, 7, 10], [1, 4, 10], [2, 8, 8], [2, 7, 10], [1, 3, 6], [1, 5, 10], [1, 4, 6], [4, 8, 9], [1, 4, 5], [6, 8, 8], [1, 1, 3], [2, 4, 10], [2, 5, 9], [3, 4, 6], [2, 3, 4], [5, 8, 10], [2, 4, 8], [6, 8, 8], [3, 10, 10], [2, 6, 8], [1, 4, 5], [1, 5, 9], [4, 9, 10], [5, 10, 10], [2, 6, 9], [1, 3, 9], [1, 5, 5], [4, 7, 9], [1, 8, 10], [2, 3, 5], [4, 6, 8], [2, 2, 3], [2, 2, 4], [3, 3, 6], [1, 8, 9], [2, 6, 10], [3, 6, 8], [1, 5, 6], [4, 9, 10], [3, 8, 8], [2, 8, 9], [3, 4, 5], [2, 3, 7], [4, 5, 10], [1, 3, 4], [1, 4, 6], [3, 5, 6], [0]]
letting resourceUsage = [[[0, 0, 0, 0]], [[5, 0, 0, 5], [0, 3, 6, 0], [2, 0, 4, 0]], [[3, 0, 0, 9], [3, 0, 0, 6], [0, 1, 7, 0]], [[0, 2, 5, 0], [0, 1, 4, 0], [0, 1, 3, 0]], [[5, 0, 0, 4], [0, 2, 4, 0], [0, 2, 2, 0]], [[4, 0, 0, 6], [4, 0, 0, 5], [0, 1, 6, 0]], [[0, 4, 0, 6], [1, 0, 0, 5], [0, 2, 3, 0]], [[2, 0, 8, 0], [0, 3, 0, 4], [1, 0, 5, 0]], [[0, 4, 0, 9], [0, 2, 0, 7], [1, 0, 0, 3]], [[4, 0, 3, 0], [0, 3, 3, 0], [0, 3, 0, 2]], [[3, 0, 0, 9], [2, 0, 4, 0], [0, 3, 4, 0]], [[3, 0, 0, 7], [2, 0, 7, 0], [1, 0, 6, 0]], [[0, 4, 0, 9], [0, 4, 6, 0], [0, 4, 0, 6]], [[3, 0, 10, 0], [0, 1, 0, 8], [0, 1, 3, 0]], [[4, 0, 3, 0], [3, 0, 3, 0], [0, 4, 2, 0]], [[0, 1, 5, 0], [3, 0, 0, 2], [3, 0, 0, 1]], [[4, 0, 8, 0], [0, 3, 7, 0], [0, 3, 6, 0]], [[5, 0, 0, 3], [0, 4, 5, 0], [4, 0, 4, 0]], [[0, 3, 9, 0], [0, 2, 6, 0], [0, 2, 0, 4]], [[0, 4, 0, 7], [0, 2, 0, 3], [0, 1, 6, 0]], [[0, 2, 0, 6], [0, 1, 0, 5], [0, 1, 3, 0]], [[0, 3, 0, 6], [0, 2, 0, 6], [0, 1, 0, 5]], [[0, 4, 0, 2], [3, 0, 0, 2], [0, 3, 3, 0]], [[2, 0, 0, 5], [1, 0, 0, 3], [1, 0, 0, 1]], [[0, 3, 0, 7], [0, 2, 0, 7], [0, 2, 0, 6]], [[0, 4, 0, 8], [0, 3, 7, 0], [0, 2, 6, 0]], [[0, 5, 0, 5], [0, 4, 0, 3], [0, 4, 4, 0]], [[5, 0, 4, 0], [3, 0, 4, 0], [1, 0, 0, 5]], [[0, 1, 9, 0], [0, 1, 8, 0], [0, 1, 0, 8]], [[0, 5, 5, 0], [0, 4, 3, 0], [0, 4, 2, 0]], [[4, 0, 0, 7], [0, 4, 0, 5], [4, 0, 4, 0]], [[0, 2, 0, 5], [0, 1, 0, 4], [2, 0, 3, 0]], [[2, 0, 0, 4], [0, 2, 0, 4], [0, 1, 0, 3]], [[4, 0, 0, 4], [0, 1, 0, 3], [0, 1, 0, 2]], [[0, 3, 0, 8], [0, 3, 0, 7], [2, 0, 4, 0]], [[4, 0, 9, 0], [0, 3, 0, 5], [0, 3, 0, 4]], [[4, 0, 4, 0], [0, 3, 0, 4], [0, 1, 3, 0]], [[0, 2, 2, 0], [0, 1, 0, 6], [1, 0, 1, 0]], [[0, 3, 0, 7], [3, 0, 3, 0], [0, 3, 0, 6]], [[2, 0, 0, 5], [2, 0, 3, 0], [2, 0, 0, 3]], [[0, 4, 10, 0], [2, 0, 4, 0], [0, 3, 0, 10]], [[2, 0, 0, 9], [0, 1, 0, 8], [1, 0, 8, 0]], [[0, 3, 0, 2], [0, 3, 0, 1], [0, 2, 8, 0]], [[5, 0, 0, 10], [3, 0, 2, 0], [3, 0, 1, 0]], [[2, 0, 10, 0], [2, 0, 0, 6], [0, 2, 4, 0]], [[0, 5, 0, 8], [3, 0, 4, 0], [0, 5, 2, 0]], [[2, 0, 0, 6], [0, 2, 4, 0], [2, 0, 0, 1]], [[5, 0, 6, 0], [0, 1, 0, 5], [4, 0, 3, 0]], [[4, 0, 0, 4], [2, 0, 0, 3], [1, 0, 0, 3]], [[5, 0, 5, 0], [4, 0, 4, 0], [0, 1, 4, 0]], [[0, 3, 5, 0], [0, 3, 0, 1], [0, 3, 3, 0]], [[0, 2, 4, 0], [4, 0, 0, 6], [4, 0, 4, 0]], [[5, 0, 6, 0], [0, 3, 6, 0], [0, 3, 5, 0]], [[0, 3, 6, 0], [0, 1, 6, 0], [3, 0, 0, 5]], [[0, 4, 0, 5], [2, 0, 0, 5], [0, 2, 7, 0]], [[0, 3, 0, 4], [0, 2, 8, 0], [4, 0, 0, 4]], [[4, 0, 0, 2], [3, 0, 0, 2], [0, 4, 4, 0]], [[1, 0, 8, 0], [1, 0, 0, 9], [1, 0, 4, 0]], [[0, 3, 4, 0], [0, 1, 0, 5], [0, 1, 0, 1]], [[4, 0, 0, 7], [0, 4, 0, 5], [2, 0, 3, 0]], [[0, 3, 6, 0], [0, 3, 0, 4], [1, 0, 3, 0]], [[0, 3, 6, 0], [0, 2, 0, 6], [0, 2, 0, 2]], [[3, 0, 0, 6], [0, 1, 2, 0], [0, 1, 0, 4]], [[0, 3, 0, 10], [0, 3, 4, 0], [3, 0, 0, 8]], [[0, 3, 0, 7], [3, 0, 7, 0], [3, 0, 6, 0]], [[4, 0, 10, 0], [4, 0, 8, 0], [4, 0, 0, 6]], [[0, 3, 0, 2], [3, 0, 0, 2], [0, 2, 0, 2]], [[4, 0, 7, 0], [3, 0, 6, 0], [0, 4, 0, 4]], [[0, 5, 0, 8], [2, 0, 4, 0], [0, 2, 0, 7]], [[4, 0, 0, 9], [0, 4, 1, 0], [2, 0, 1, 0]], [[3, 0, 7, 0], [0, 4, 7, 0], [0, 4, 0, 7]], [[2, 0, 0, 7], [0, 1, 0, 6], [1, 0, 1, 0]], [[0, 2, 0, 5], [4, 0, 5, 0], [0, 1, 4, 0]], [[0, 4, 0, 6], [0, 3, 2, 0], [1, 0, 2, 0]], [[0, 4, 0, 7], [0, 4, 3, 0], [0, 3, 0, 7]], [[5, 0, 5, 0], [0, 3, 4, 0], [0, 2, 0, 8]], [[0, 3, 0, 8], [2, 0, 0, 6], [0, 3, 6, 0]], [[0, 3, 6, 0], [0, 3, 4, 0], [5, 0, 0, 1]], [[0, 2, 0, 9], [1, 0, 6, 0], [1, 0, 5, 0]], [[0, 3, 5, 0], [5, 0, 0, 4], [0, 2, 0, 3]], [[0, 4, 3, 0], [3, 0, 0, 3], [0, 4, 1, 0]], [[0, 3, 8, 0], [0, 3, 7, 0], [0, 3, 0, 2]], [[4, 0, 0, 8], [4, 0, 3, 0], [0, 2, 0, 6]], [[4, 0, 8, 0], [3, 0, 8, 0], [0, 3, 7, 0]], [[0, 5, 0, 10], [0, 3, 4, 0], [3, 0, 4, 0]], [[4, 0, 0, 10], [0, 3, 4, 0], [0, 3, 3, 0]], [[0, 3, 0, 5], [0, 1, 2, 0], [0, 1, 0, 3]], [[0, 4, 3, 0], [0, 4, 0, 6], [0, 4, 0, 5]], [[0, 1, 9, 0], [0, 1, 0, 3], [0, 1, 4, 0]], [[4, 0, 2, 0], [0, 4, 2, 0], [0, 2, 0, 3]], [[4, 0, 8, 0], [0, 3, 0, 5], [0, 3, 0, 4]], [[0, 4, 9, 0], [0, 2, 0, 5], [4, 0, 5, 0]], [[0, 5, 0, 5], [0, 4, 6, 0], [0, 2, 6, 0]], [[4, 0, 5, 0], [0, 3, 0, 4], [4, 0, 3, 0]], [[0, 5, 0, 5], [0, 3, 0, 4], [0, 2, 1, 0]], [[0, 2, 4, 0], [0, 2, 3, 0], [2, 0, 0, 7]], [[0, 2, 0, 5], [4, 0, 0, 4], [4, 0, 0, 3]], [[3, 0, 0, 6], [3, 0, 7, 0], [3, 0, 5, 0]], [[3, 0, 9, 0], [2, 0, 9, 0], [2, 0, 0, 6]], [[4, 0, 3, 0], [3, 0, 0, 1], [0, 4, 0, 1]], [[0, 4, 5, 0], [0, 3, 0, 4], [0, 1, 0, 4]], [[0, 0, 0, 0]]]
